\ LP file for the Reid example.

Maximize
  Obj: 0
Subject to
  x1 + x6 = 1
  x3 + x6 = 1
  x1 + x2 + x7 = 1
  x3 + x4 + x7 + x8 = 1
  x5 + x8 = 1
  x2 + x9 = 1
  x4 + x9 + x10 = 1
  x5 + x10 = 1
  2 x1 + 2 x2 + 2 x3 + 2 x4 + 2 x5 + 2 x6 + 2 x7 + 2 x8 + 2 x9 + 2 x10 = 8
Binary
  x1 x2 x3 x4 x5 x6 x7 x8 x9 x10
End